p tw 153 24481 2 
1 3 
1 4 
1 5 
1 6 
1 7 
1 8 
1 9 
1 10 
1 11 
1 12 
1 13 
1 14 
1 15 
1 16 
1 17 
1 18 
1 19 
1 20 
1 21 
1 22 
1 23 
1 24 
1 25 
1 26 
1 27 
1 28 
1 29 
1 30 
1 31 
1 32 
1 33 
2 3 
2 4 
2 5 
2 6 
2 7 
2 8 
2 9 
2 10 
2 11 
2 12 
2 13 
2 14 
2 15 
2 16 
2 17 
2 18 
2 34 
2 35 
2 36 
2 37 
2 38 
2 39 
2 40 
2 41 
2 42 
2 43 
2 44 
2 45 
2 46 
2 47 
2 48 
3 4 
3 5 
3 6 
3 7 
3 8 
3 9 
3 10 
3 11 
3 12 
3 13 
3 14 
3 15 
3 16 
3 17 
3 19 
3 34 
3 49 
3 50 
3 51 
3 52 
3 53 
3 54 
3 55 
3 56 
3 57 
3 58 
3 59 
3 60 
3 61 
3 62 
4 5 
4 6 
4 7 
4 8 
4 9 
4 10 
4 11 
4 12 
4 13 
4 14 
4 15 
4 16 
4 17 
4 20 
4 35 
4 49 
4 63 
4 64 
4 65 
4 66 
4 67 
4 68 
4 69 
4 70 
4 71 
4 72 
4 73 
4 74 
4 75 
5 6 
5 7 
5 8 
5 9 
5 10 
5 11 
5 12 
5 13 
5 14 
5 15 
5 16 
5 17 
5 21 
5 36 
5 50 
5 63 
5 76 
5 77 
5 78 
5 79 
5 80 
5 81 
5 82 
5 83 
5 84 
5 85 
5 86 
5 87 
6 7 
6 8 
6 9 
6 10 
6 11 
6 12 
6 13 
6 14 
6 15 
6 16 
6 17 
6 22 
6 37 
6 51 
6 64 
6 76 
6 88 
6 89 
6 90 
6 91 
6 92 
6 93 
6 94 
6 95 
6 96 
6 97 
6 98 
7 8 
7 9 
7 10 
7 11 
7 12 
7 13 
7 14 
7 15 
7 16 
7 17 
7 23 
7 38 
7 52 
7 65 
7 77 
7 88 
7 99 
7 100 
7 101 
7 102 
7 103 
7 104 
7 105 
7 106 
7 107 
7 108 
8 9 
8 10 
8 11 
8 12 
8 13 
8 14 
8 15 
8 16 
8 17 
8 24 
8 39 
8 53 
8 66 
8 78 
8 89 
8 99 
8 109 
8 110 
8 111 
8 112 
8 113 
8 114 
8 115 
8 116 
8 117 
9 10 
9 11 
9 12 
9 13 
9 14 
9 15 
9 16 
9 17 
9 25 
9 40 
9 54 
9 67 
9 79 
9 90 
9 100 
9 109 
9 118 
9 119 
9 120 
9 121 
9 122 
9 123 
9 124 
9 125 
10 11 
10 12 
10 13 
10 14 
10 15 
10 16 
10 17 
10 26 
10 41 
10 55 
10 68 
10 80 
10 91 
10 101 
10 110 
10 118 
10 126 
10 127 
10 128 
10 129 
10 130 
10 131 
10 132 
11 12 
11 13 
11 14 
11 15 
11 16 
11 17 
11 27 
11 42 
11 56 
11 69 
11 81 
11 92 
11 102 
11 111 
11 119 
11 126 
11 133 
11 134 
11 135 
11 136 
11 137 
11 138 
12 13 
12 14 
12 15 
12 16 
12 17 
12 28 
12 43 
12 57 
12 70 
12 82 
12 93 
12 103 
12 112 
12 120 
12 127 
12 133 
12 139 
12 140 
12 141 
12 142 
12 143 
13 14 
13 15 
13 16 
13 17 
13 29 
13 44 
13 58 
13 71 
13 83 
13 94 
13 104 
13 113 
13 121 
13 128 
13 134 
13 139 
13 144 
13 145 
13 146 
13 147 
14 15 
14 16 
14 17 
14 30 
14 45 
14 59 
14 72 
14 84 
14 95 
14 105 
14 114 
14 122 
14 129 
14 135 
14 140 
14 144 
14 148 
14 149 
14 150 
15 16 
15 17 
15 31 
15 46 
15 60 
15 73 
15 85 
15 96 
15 106 
15 115 
15 123 
15 130 
15 136 
15 141 
15 145 
15 148 
15 151 
15 152 
16 17 
16 32 
16 47 
16 61 
16 74 
16 86 
16 97 
16 107 
16 116 
16 124 
16 131 
16 137 
16 142 
16 146 
16 149 
16 151 
16 153 
17 33 
17 48 
17 62 
17 75 
17 87 
17 98 
17 108 
17 117 
17 125 
17 132 
17 138 
17 143 
17 147 
17 150 
17 152 
17 153 
18 19 
18 20 
18 21 
18 22 
18 23 
18 24 
18 25 
18 26 
18 27 
18 28 
18 29 
18 30 
18 31 
18 32 
18 33 
18 34 
18 35 
18 36 
18 37 
18 38 
18 39 
18 40 
18 41 
18 42 
18 43 
18 44 
18 45 
18 46 
18 47 
18 48 
19 20 
19 21 
19 22 
19 23 
19 24 
19 25 
19 26 
19 27 
19 28 
19 29 
19 30 
19 31 
19 32 
19 33 
19 34 
19 49 
19 50 
19 51 
19 52 
19 53 
19 54 
19 55 
19 56 
19 57 
19 58 
19 59 
19 60 
19 61 
19 62 
20 21 
20 22 
20 23 
20 24 
20 25 
20 26 
20 27 
20 28 
20 29 
20 30 
20 31 
20 32 
20 33 
20 35 
20 49 
20 63 
20 64 
20 65 
20 66 
20 67 
20 68 
20 69 
20 70 
20 71 
20 72 
20 73 
20 74 
20 75 
21 22 
21 23 
21 24 
21 25 
21 26 
21 27 
21 28 
21 29 
21 30 
21 31 
21 32 
21 33 
21 36 
21 50 
21 63 
21 76 
21 77 
21 78 
21 79 
21 80 
21 81 
21 82 
21 83 
21 84 
21 85 
21 86 
21 87 
22 23 
22 24 
22 25 
22 26 
22 27 
22 28 
22 29 
22 30 
22 31 
22 32 
22 33 
22 37 
22 51 
22 64 
22 76 
22 88 
22 89 
22 90 
22 91 
22 92 
22 93 
22 94 
22 95 
22 96 
22 97 
22 98 
23 24 
23 25 
23 26 
23 27 
23 28 
23 29 
23 30 
23 31 
23 32 
23 33 
23 38 
23 52 
23 65 
23 77 
23 88 
23 99 
23 100 
23 101 
23 102 
23 103 
23 104 
23 105 
23 106 
23 107 
23 108 
24 25 
24 26 
24 27 
24 28 
24 29 
24 30 
24 31 
24 32 
24 33 
24 39 
24 53 
24 66 
24 78 
24 89 
24 99 
24 109 
24 110 
24 111 
24 112 
24 113 
24 114 
24 115 
24 116 
24 117 
25 26 
25 27 
25 28 
25 29 
25 30 
25 31 
25 32 
25 33 
25 40 
25 54 
25 67 
25 79 
25 90 
25 100 
25 109 
25 118 
25 119 
25 120 
25 121 
25 122 
25 123 
25 124 
25 125 
26 27 
26 28 
26 29 
26 30 
26 31 
26 32 
26 33 
26 41 
26 55 
26 68 
26 80 
26 91 
26 101 
26 110 
26 118 
26 126 
26 127 
26 128 
26 129 
26 130 
26 131 
26 132 
27 28 
27 29 
27 30 
27 31 
27 32 
27 33 
27 42 
27 56 
27 69 
27 81 
27 92 
27 102 
27 111 
27 119 
27 126 
27 133 
27 134 
27 135 
27 136 
27 137 
27 138 
28 29 
28 30 
28 31 
28 32 
28 33 
28 43 
28 57 
28 70 
28 82 
28 93 
28 103 
28 112 
28 120 
28 127 
28 133 
28 139 
28 140 
28 141 
28 142 
28 143 
29 30 
29 31 
29 32 
29 33 
29 44 
29 58 
29 71 
29 83 
29 94 
29 104 
29 113 
29 121 
29 128 
29 134 
29 139 
29 144 
29 145 
29 146 
29 147 
30 31 
30 32 
30 33 
30 45 
30 59 
30 72 
30 84 
30 95 
30 105 
30 114 
30 122 
30 129 
30 135 
30 140 
30 144 
30 148 
30 149 
30 150 
31 32 
31 33 
31 46 
31 60 
31 73 
31 85 
31 96 
31 106 
31 115 
31 123 
31 130 
31 136 
31 141 
31 145 
31 148 
31 151 
31 152 
32 33 
32 47 
32 61 
32 74 
32 86 
32 97 
32 107 
32 116 
32 124 
32 131 
32 137 
32 142 
32 146 
32 149 
32 151 
32 153 
33 48 
33 62 
33 75 
33 87 
33 98 
33 108 
33 117 
33 125 
33 132 
33 138 
33 143 
33 147 
33 150 
33 152 
33 153 
34 35 
34 36 
34 37 
34 38 
34 39 
34 40 
34 41 
34 42 
34 43 
34 44 
34 45 
34 46 
34 47 
34 48 
34 49 
34 50 
34 51 
34 52 
34 53 
34 54 
34 55 
34 56 
34 57 
34 58 
34 59 
34 60 
34 61 
34 62 
35 36 
35 37 
35 38 
35 39 
35 40 
35 41 
35 42 
35 43 
35 44 
35 45 
35 46 
35 47 
35 48 
35 49 
35 63 
35 64 
35 65 
35 66 
35 67 
35 68 
35 69 
35 70 
35 71 
35 72 
35 73 
35 74 
35 75 
36 37 
36 38 
36 39 
36 40 
36 41 
36 42 
36 43 
36 44 
36 45 
36 46 
36 47 
36 48 
36 50 
36 63 
36 76 
36 77 
36 78 
36 79 
36 80 
36 81 
36 82 
36 83 
36 84 
36 85 
36 86 
36 87 
37 38 
37 39 
37 40 
37 41 
37 42 
37 43 
37 44 
37 45 
37 46 
37 47 
37 48 
37 51 
37 64 
37 76 
37 88 
37 89 
37 90 
37 91 
37 92 
37 93 
37 94 
37 95 
37 96 
37 97 
37 98 
38 39 
38 40 
38 41 
38 42 
38 43 
38 44 
38 45 
38 46 
38 47 
38 48 
38 52 
38 65 
38 77 
38 88 
38 99 
38 100 
38 101 
38 102 
38 103 
38 104 
38 105 
38 106 
38 107 
38 108 
39 40 
39 41 
39 42 
39 43 
39 44 
39 45 
39 46 
39 47 
39 48 
39 53 
39 66 
39 78 
39 89 
39 99 
39 109 
39 110 
39 111 
39 112 
39 113 
39 114 
39 115 
39 116 
39 117 
40 41 
40 42 
40 43 
40 44 
40 45 
40 46 
40 47 
40 48 
40 54 
40 67 
40 79 
40 90 
40 100 
40 109 
40 118 
40 119 
40 120 
40 121 
40 122 
40 123 
40 124 
40 125 
41 42 
41 43 
41 44 
41 45 
41 46 
41 47 
41 48 
41 55 
41 68 
41 80 
41 91 
41 101 
41 110 
41 118 
41 126 
41 127 
41 128 
41 129 
41 130 
41 131 
41 132 
42 43 
42 44 
42 45 
42 46 
42 47 
42 48 
42 56 
42 69 
42 81 
42 92 
42 102 
42 111 
42 119 
42 126 
42 133 
42 134 
42 135 
42 136 
42 137 
42 138 
43 44 
43 45 
43 46 
43 47 
43 48 
43 57 
43 70 
43 82 
43 93 
43 103 
43 112 
43 120 
43 127 
43 133 
43 139 
43 140 
43 141 
43 142 
43 143 
44 45 
44 46 
44 47 
44 48 
44 58 
44 71 
44 83 
44 94 
44 104 
44 113 
44 121 
44 128 
44 134 
44 139 
44 144 
44 145 
44 146 
44 147 
45 46 
45 47 
45 48 
45 59 
45 72 
45 84 
45 95 
45 105 
45 114 
45 122 
45 129 
45 135 
45 140 
45 144 
45 148 
45 149 
45 150 
46 47 
46 48 
46 60 
46 73 
46 85 
46 96 
46 106 
46 115 
46 123 
46 130 
46 136 
46 141 
46 145 
46 148 
46 151 
46 152 
47 48 
47 61 
47 74 
47 86 
47 97 
47 107 
47 116 
47 124 
47 131 
47 137 
47 142 
47 146 
47 149 
47 151 
47 153 
48 62 
48 75 
48 87 
48 98 
48 108 
48 117 
48 125 
48 132 
48 138 
48 143 
48 147 
48 150 
48 152 
48 153 
49 50 
49 51 
49 52 
49 53 
49 54 
49 55 
49 56 
49 57 
49 58 
49 59 
49 60 
49 61 
49 62 
49 63 
49 64 
49 65 
49 66 
49 67 
49 68 
49 69 
49 70 
49 71 
49 72 
49 73 
49 74 
49 75 
50 51 
50 52 
50 53 
50 54 
50 55 
50 56 
50 57 
50 58 
50 59 
50 60 
50 61 
50 62 
50 63 
50 76 
50 77 
50 78 
50 79 
50 80 
50 81 
50 82 
50 83 
50 84 
50 85 
50 86 
50 87 
51 52 
51 53 
51 54 
51 55 
51 56 
51 57 
51 58 
51 59 
51 60 
51 61 
51 62 
51 64 
51 76 
51 88 
51 89 
51 90 
51 91 
51 92 
51 93 
51 94 
51 95 
51 96 
51 97 
51 98 
52 53 
52 54 
52 55 
52 56 
52 57 
52 58 
52 59 
52 60 
52 61 
52 62 
52 65 
52 77 
52 88 
52 99 
52 100 
52 101 
52 102 
52 103 
52 104 
52 105 
52 106 
52 107 
52 108 
53 54 
53 55 
53 56 
53 57 
53 58 
53 59 
53 60 
53 61 
53 62 
53 66 
53 78 
53 89 
53 99 
53 109 
53 110 
53 111 
53 112 
53 113 
53 114 
53 115 
53 116 
53 117 
54 55 
54 56 
54 57 
54 58 
54 59 
54 60 
54 61 
54 62 
54 67 
54 79 
54 90 
54 100 
54 109 
54 118 
54 119 
54 120 
54 121 
54 122 
54 123 
54 124 
54 125 
55 56 
55 57 
55 58 
55 59 
55 60 
55 61 
55 62 
55 68 
55 80 
55 91 
55 101 
55 110 
55 118 
55 126 
55 127 
55 128 
55 129 
55 130 
55 131 
55 132 
56 57 
56 58 
56 59 
56 60 
56 61 
56 62 
56 69 
56 81 
56 92 
56 102 
56 111 
56 119 
56 126 
56 133 
56 134 
56 135 
56 136 
56 137 
56 138 
57 58 
57 59 
57 60 
57 61 
57 62 
57 70 
57 82 
57 93 
57 103 
57 112 
57 120 
57 127 
57 133 
57 139 
57 140 
57 141 
57 142 
57 143 
58 59 
58 60 
58 61 
58 62 
58 71 
58 83 
58 94 
58 104 
58 113 
58 121 
58 128 
58 134 
58 139 
58 144 
58 145 
58 146 
58 147 
59 60 
59 61 
59 62 
59 72 
59 84 
59 95 
59 105 
59 114 
59 122 
59 129 
59 135 
59 140 
59 144 
59 148 
59 149 
59 150 
60 61 
60 62 
60 73 
60 85 
60 96 
60 106 
60 115 
60 123 
60 130 
60 136 
60 141 
60 145 
60 148 
60 151 
60 152 
61 62 
61 74 
61 86 
61 97 
61 107 
61 116 
61 124 
61 131 
61 137 
61 142 
61 146 
61 149 
61 151 
61 153 
62 75 
62 87 
62 98 
62 108 
62 117 
62 125 
62 132 
62 138 
62 143 
62 147 
62 150 
62 152 
62 153 
63 64 
63 65 
63 66 
63 67 
63 68 
63 69 
63 70 
63 71 
63 72 
63 73 
63 74 
63 75 
63 76 
63 77 
63 78 
63 79 
63 80 
63 81 
63 82 
63 83 
63 84 
63 85 
63 86 
63 87 
64 65 
64 66 
64 67 
64 68 
64 69 
64 70 
64 71 
64 72 
64 73 
64 74 
64 75 
64 76 
64 88 
64 89 
64 90 
64 91 
64 92 
64 93 
64 94 
64 95 
64 96 
64 97 
64 98 
65 66 
65 67 
65 68 
65 69 
65 70 
65 71 
65 72 
65 73 
65 74 
65 75 
65 77 
65 88 
65 99 
65 100 
65 101 
65 102 
65 103 
65 104 
65 105 
65 106 
65 107 
65 108 
66 67 
66 68 
66 69 
66 70 
66 71 
66 72 
66 73 
66 74 
66 75 
66 78 
66 89 
66 99 
66 109 
66 110 
66 111 
66 112 
66 113 
66 114 
66 115 
66 116 
66 117 
67 68 
67 69 
67 70 
67 71 
67 72 
67 73 
67 74 
67 75 
67 79 
67 90 
67 100 
67 109 
67 118 
67 119 
67 120 
67 121 
67 122 
67 123 
67 124 
67 125 
68 69 
68 70 
68 71 
68 72 
68 73 
68 74 
68 75 
68 80 
68 91 
68 101 
68 110 
68 118 
68 126 
68 127 
68 128 
68 129 
68 130 
68 131 
68 132 
69 70 
69 71 
69 72 
69 73 
69 74 
69 75 
69 81 
69 92 
69 102 
69 111 
69 119 
69 126 
69 133 
69 134 
69 135 
69 136 
69 137 
69 138 
70 71 
70 72 
70 73 
70 74 
70 75 
70 82 
70 93 
70 103 
70 112 
70 120 
70 127 
70 133 
70 139 
70 140 
70 141 
70 142 
70 143 
71 72 
71 73 
71 74 
71 75 
71 83 
71 94 
71 104 
71 113 
71 121 
71 128 
71 134 
71 139 
71 144 
71 145 
71 146 
71 147 
72 73 
72 74 
72 75 
72 84 
72 95 
72 105 
72 114 
72 122 
72 129 
72 135 
72 140 
72 144 
72 148 
72 149 
72 150 
73 74 
73 75 
73 85 
73 96 
73 106 
73 115 
73 123 
73 130 
73 136 
73 141 
73 145 
73 148 
73 151 
73 152 
74 75 
74 86 
74 97 
74 107 
74 116 
74 124 
74 131 
74 137 
74 142 
74 146 
74 149 
74 151 
74 153 
75 87 
75 98 
75 108 
75 117 
75 125 
75 132 
75 138 
75 143 
75 147 
75 150 
75 152 
75 153 
76 77 
76 78 
76 79 
76 80 
76 81 
76 82 
76 83 
76 84 
76 85 
76 86 
76 87 
76 88 
76 89 
76 90 
76 91 
76 92 
76 93 
76 94 
76 95 
76 96 
76 97 
76 98 
77 78 
77 79 
77 80 
77 81 
77 82 
77 83 
77 84 
77 85 
77 86 
77 87 
77 88 
77 99 
77 100 
77 101 
77 102 
77 103 
77 104 
77 105 
77 106 
77 107 
77 108 
78 79 
78 80 
78 81 
78 82 
78 83 
78 84 
78 85 
78 86 
78 87 
78 89 
78 99 
78 109 
78 110 
78 111 
78 112 
78 113 
78 114 
78 115 
78 116 
78 117 
79 80 
79 81 
79 82 
79 83 
79 84 
79 85 
79 86 
79 87 
79 90 
79 100 
79 109 
79 118 
79 119 
79 120 
79 121 
79 122 
79 123 
79 124 
79 125 
80 81 
80 82 
80 83 
80 84 
80 85 
80 86 
80 87 
80 91 
80 101 
80 110 
80 118 
80 126 
80 127 
80 128 
80 129 
80 130 
80 131 
80 132 
81 82 
81 83 
81 84 
81 85 
81 86 
81 87 
81 92 
81 102 
81 111 
81 119 
81 126 
81 133 
81 134 
81 135 
81 136 
81 137 
81 138 
82 83 
82 84 
82 85 
82 86 
82 87 
82 93 
82 103 
82 112 
82 120 
82 127 
82 133 
82 139 
82 140 
82 141 
82 142 
82 143 
83 84 
83 85 
83 86 
83 87 
83 94 
83 104 
83 113 
83 121 
83 128 
83 134 
83 139 
83 144 
83 145 
83 146 
83 147 
84 85 
84 86 
84 87 
84 95 
84 105 
84 114 
84 122 
84 129 
84 135 
84 140 
84 144 
84 148 
84 149 
84 150 
85 86 
85 87 
85 96 
85 106 
85 115 
85 123 
85 130 
85 136 
85 141 
85 145 
85 148 
85 151 
85 152 
86 87 
86 97 
86 107 
86 116 
86 124 
86 131 
86 137 
86 142 
86 146 
86 149 
86 151 
86 153 
87 98 
87 108 
87 117 
87 125 
87 132 
87 138 
87 143 
87 147 
87 150 
87 152 
87 153 
88 89 
88 90 
88 91 
88 92 
88 93 
88 94 
88 95 
88 96 
88 97 
88 98 
88 99 
88 100 
88 101 
88 102 
88 103 
88 104 
88 105 
88 106 
88 107 
88 108 
89 90 
89 91 
89 92 
89 93 
89 94 
89 95 
89 96 
89 97 
89 98 
89 99 
89 109 
89 110 
89 111 
89 112 
89 113 
89 114 
89 115 
89 116 
89 117 
90 91 
90 92 
90 93 
90 94 
90 95 
90 96 
90 97 
90 98 
90 100 
90 109 
90 118 
90 119 
90 120 
90 121 
90 122 
90 123 
90 124 
90 125 
91 92 
91 93 
91 94 
91 95 
91 96 
91 97 
91 98 
91 101 
91 110 
91 118 
91 126 
91 127 
91 128 
91 129 
91 130 
91 131 
91 132 
92 93 
92 94 
92 95 
92 96 
92 97 
92 98 
92 102 
92 111 
92 119 
92 126 
92 133 
92 134 
92 135 
92 136 
92 137 
92 138 
93 94 
93 95 
93 96 
93 97 
93 98 
93 103 
93 112 
93 120 
93 127 
93 133 
93 139 
93 140 
93 141 
93 142 
93 143 
94 95 
94 96 
94 97 
94 98 
94 104 
94 113 
94 121 
94 128 
94 134 
94 139 
94 144 
94 145 
94 146 
94 147 
95 96 
95 97 
95 98 
95 105 
95 114 
95 122 
95 129 
95 135 
95 140 
95 144 
95 148 
95 149 
95 150 
96 97 
96 98 
96 106 
96 115 
96 123 
96 130 
96 136 
96 141 
96 145 
96 148 
96 151 
96 152 
97 98 
97 107 
97 116 
97 124 
97 131 
97 137 
97 142 
97 146 
97 149 
97 151 
97 153 
98 108 
98 117 
98 125 
98 132 
98 138 
98 143 
98 147 
98 150 
98 152 
98 153 
99 100 
99 101 
99 102 
99 103 
99 104 
99 105 
99 106 
99 107 
99 108 
99 109 
99 110 
99 111 
99 112 
99 113 
99 114 
99 115 
99 116 
99 117 
100 101 
100 102 
100 103 
100 104 
100 105 
100 106 
100 107 
100 108 
100 109 
100 118 
100 119 
100 120 
100 121 
100 122 
100 123 
100 124 
100 125 
101 102 
101 103 
101 104 
101 105 
101 106 
101 107 
101 108 
101 110 
101 118 
101 126 
101 127 
101 128 
101 129 
101 130 
101 131 
101 132 
102 103 
102 104 
102 105 
102 106 
102 107 
102 108 
102 111 
102 119 
102 126 
102 133 
102 134 
102 135 
102 136 
102 137 
102 138 
103 104 
103 105 
103 106 
103 107 
103 108 
103 112 
103 120 
103 127 
103 133 
103 139 
103 140 
103 141 
103 142 
103 143 
104 105 
104 106 
104 107 
104 108 
104 113 
104 121 
104 128 
104 134 
104 139 
104 144 
104 145 
104 146 
104 147 
105 106 
105 107 
105 108 
105 114 
105 122 
105 129 
105 135 
105 140 
105 144 
105 148 
105 149 
105 150 
106 107 
106 108 
106 115 
106 123 
106 130 
106 136 
106 141 
106 145 
106 148 
106 151 
106 152 
107 108 
107 116 
107 124 
107 131 
107 137 
107 142 
107 146 
107 149 
107 151 
107 153 
108 117 
108 125 
108 132 
108 138 
108 143 
108 147 
108 150 
108 152 
108 153 
109 110 
109 111 
109 112 
109 113 
109 114 
109 115 
109 116 
109 117 
109 118 
109 119 
109 120 
109 121 
109 122 
109 123 
109 124 
109 125 
110 111 
110 112 
110 113 
110 114 
110 115 
110 116 
110 117 
110 118 
110 126 
110 127 
110 128 
110 129 
110 130 
110 131 
110 132 
111 112 
111 113 
111 114 
111 115 
111 116 
111 117 
111 119 
111 126 
111 133 
111 134 
111 135 
111 136 
111 137 
111 138 
112 113 
112 114 
112 115 
112 116 
112 117 
112 120 
112 127 
112 133 
112 139 
112 140 
112 141 
112 142 
112 143 
113 114 
113 115 
113 116 
113 117 
113 121 
113 128 
113 134 
113 139 
113 144 
113 145 
113 146 
113 147 
114 115 
114 116 
114 117 
114 122 
114 129 
114 135 
114 140 
114 144 
114 148 
114 149 
114 150 
115 116 
115 117 
115 123 
115 130 
115 136 
115 141 
115 145 
115 148 
115 151 
115 152 
116 117 
116 124 
116 131 
116 137 
116 142 
116 146 
116 149 
116 151 
116 153 
117 125 
117 132 
117 138 
117 143 
117 147 
117 150 
117 152 
117 153 
118 119 
118 120 
118 121 
118 122 
118 123 
118 124 
118 125 
118 126 
118 127 
118 128 
118 129 
118 130 
118 131 
118 132 
119 120 
119 121 
119 122 
119 123 
119 124 
119 125 
119 126 
119 133 
119 134 
119 135 
119 136 
119 137 
119 138 
120 121 
120 122 
120 123 
120 124 
120 125 
120 127 
120 133 
120 139 
120 140 
120 141 
120 142 
120 143 
121 122 
121 123 
121 124 
121 125 
121 128 
121 134 
121 139 
121 144 
121 145 
121 146 
121 147 
122 123 
122 124 
122 125 
122 129 
122 135 
122 140 
122 144 
122 148 
122 149 
122 150 
123 124 
123 125 
123 130 
123 136 
123 141 
123 145 
123 148 
123 151 
123 152 
124 125 
124 131 
124 137 
124 142 
124 146 
124 149 
124 151 
124 153 
125 132 
125 138 
125 143 
125 147 
125 150 
125 152 
125 153 
126 127 
126 128 
126 129 
126 130 
126 131 
126 132 
126 133 
126 134 
126 135 
126 136 
126 137 
126 138 
127 128 
127 129 
127 130 
127 131 
127 132 
127 133 
127 139 
127 140 
127 141 
127 142 
127 143 
128 129 
128 130 
128 131 
128 132 
128 134 
128 139 
128 144 
128 145 
128 146 
128 147 
129 130 
129 131 
129 132 
129 135 
129 140 
129 144 
129 148 
129 149 
129 150 
130 131 
130 132 
130 136 
130 141 
130 145 
130 148 
130 151 
130 152 
131 132 
131 137 
131 142 
131 146 
131 149 
131 151 
131 153 
132 138 
132 143 
132 147 
132 150 
132 152 
132 153 
133 134 
133 135 
133 136 
133 137 
133 138 
133 139 
133 140 
133 141 
133 142 
133 143 
134 135 
134 136 
134 137 
134 138 
134 139 
134 144 
134 145 
134 146 
134 147 
135 136 
135 137 
135 138 
135 140 
135 144 
135 148 
135 149 
135 150 
136 137 
136 138 
136 141 
136 145 
136 148 
136 151 
136 152 
137 138 
137 142 
137 146 
137 149 
137 151 
137 153 
138 143 
138 147 
138 150 
138 152 
138 153 
139 140 
139 141 
139 142 
139 143 
139 144 
139 145 
139 146 
139 147 
140 141 
140 142 
140 143 
140 144 
140 148 
140 149 
140 150 
141 142 
141 143 
141 145 
141 148 
141 151 
141 152 
142 143 
142 146 
142 149 
142 151 
142 153 
143 147 
143 150 
143 152 
143 153 
144 145 
144 146 
144 147 
144 148 
144 149 
144 150 
145 146 
145 147 
145 148 
145 151 
145 152 
146 147 
146 149 
146 151 
146 153 
147 150 
147 152 
147 153 
148 149 
148 150 
148 151 
148 152 
149 150 
149 151 
149 153 
150 152 
150 153 
151 152 
151 153 
152 153 
